




































































































1 68 40 47 56 24 
20 15 46 8 44 55 9 
67 5 31 7 76 
74 62 23 16 45 
27 48 37 42 36 73 
75 26 22 61 11 51 
66 52 65 12 71 57 
19 70 30 58 14 25 
63 2 59 53 41 3 
0 54 17 10 18 
34 64 4 43 35 
69 6 38 21 
33 32 39 60 72 
50 29 13 49 28 
